26 130 92 1 64 97 22 48 137 21 87 186 188 47 66 58 135 193 119 125 150 123 191 99 173 144 147 0 31 103 170 4 32 42 183 198 139 60 182 67 57 19 138 102 189 148 27 89 96 110 24 63 36 71 73 156 55 129 179 79 90 104 174 112 106 158 197 75 105 127 180 95 199 164 81 185 159 10 98 160 59 128 107 88 25 11 35 23 175 80 146 49 176 187 14 33 38 93 86 91 52 122 181 16 172 126 56 100 85 149 28 76 162 169 17 151 13 20 161 70 136 15 94 12 40 145 54 142 72 163 74 46 62 157 45 77 30 7 2 117 190 50 39 53 178 101 165 18 8 37 140 153 195 192 114 141 152 108 9 184 196 29 111 171 82 118 109 115 44 116 166 61 131 120 83 78 124 34 69 41 6 5 68 121 155 3 51 84 113 194 154 177 167 133 143 43 168 65 134 132 

